data;
set K:= K1 K2 K3 K4 K5 K6 K7 ;

set F:= F1 F2 ;

set Q:= Q1 Q2 ;

param T:= 45;
param V: 
	K1  K2  K3  K4  K5  K6  K7  :=
Q1	1   1   1   1   0   0   0   
Q2	0   0   0   0   1   1   1   
; # if resorce k is of type q

param TF:= 
K1 6
K2 6
K3 6
K4 6
K5 12
K6 12
K7 12
; # number of continuous time slots resource can fly

param TR:= 
K1 2
K2 2
K3 2
K4 2
K5 4
K6 4
K7 4
; #  number of continuous time slots resource k needs to rest between flights

param P:= 
K1 36
K2 36
K3 36
K4 36
K5 36
K6 36
K7 36
; #  number of continuous time slots a pilot can be present including rest times for resource k 

param N:= 
K1 4
K2 4
K3 4
K4 4
K5 2
K6 2
K7 1
; # max number of flights resource k can fly in the total time period

param A: 
	K1  K2  K3  K4  K5  K6  K7  :=
1	1   1   1   1   1   1   0   
2	1   1   1   1   1   1   0   
3	1   1   1   1   1   1   0   
4	1   1   1   1   1   1   0   
5	1   1   1   1   1   1   0   
6	1   1   1   1   1   1   0   
7	1   1   1   1   1   1   0   
8	1   1   1   1   1   1   0   
9	1   1   1   1   1   1   0   
10	1   1   1   1   1   1   0   
11	1   1   1   1   1   1   0   
12	1   1   1   1   1   1   0   
13	1   1   1   1   1   1   0   
14	1   1   1   1   1   1   1   
15	1   1   1   1   1   1   1   
16	1   1   1   1   1   1   1   
17	1   1   1   1   1   1   1   
18	1   1   1   1   1   1   1   
19	1   1   1   1   1   1   1   
20	1   1   1   1   1   1   1   
21	1   1   1   1   1   1   1   
22	1   1   1   1   1   1   1   
23	1   1   1   1   1   1   1   
24	1   1   1   1   1   1   1   
25	1   1   1   1   1   1   1   
26	1   1   1   1   1   1   1   
27	1   1   1   1   1   1   1   
28	1   1   1   1   1   1   1   
29	1   1   1   1   1   1   1   
30	1   1   1   1   1   1   1   
31	1   1   1   1   1   1   1   
32	1   1   1   1   1   1   1   
33	1   1   1   1   1   1   1   
34	1   1   1   1   1   1   1   
35	1   1   1   1   1   1   1   
36	1   1   1   1   1   1   1   
37	1   1   1   1   1   1   1   
38	1   1   1   1   1   1   1   
39	1   1   1   1   1   1   1   
40	1   1   1   1   1   1   1   
41	1   1   1   1   1   1   1   
42	1   1   1   1   1   1   1   
43	1   1   1   1   1   1   1   
44	1   1   1   1   1   1   1   
45	1   1   1   1   1   1   1   
; # availability of resorce k in time slot t

param B: 
	F1  F2  :=
Q1	0   0   
Q2	0   0   
; # if front f requires resources of type q

param U: 
	F1  F2  :=
K1	0   0   
K2	0   0   
K3	0   0   
K4	0   0   
K5	1   1   
K6	0   0   
K7	0   0   
; # transit time of resource

param C:= 
K1 900
K2 900
K3 1500
K4 4500
K5 5500
K6 5500
K7 5500
; #  water capacity of resource k

param S:= 
F1 7
F2 7
; # max number of resources that can fly at front f in the same time slot

param D:= 

[*,*,F1 ]:  K1    K2    K3    K4    K5    K6    K7    :=
1           1.50  1.50  1.50  1.20  0.90  0.90  0.90  
2           1.50  1.50  1.50  1.20  0.90  0.90  0.90  
3           1.50  1.50  1.50  1.20  0.90  0.90  0.90  
4           1.50  1.50  1.50  1.20  0.90  0.90  0.90  
5           1.50  1.50  1.50  1.20  0.90  0.90  0.90  
6           1.50  1.50  1.50  1.20  0.90  0.90  0.90  
7           1.50  1.50  1.50  1.20  0.90  0.90  0.90  
8           1.50  1.50  1.50  1.20  0.90  0.90  0.90  
9           1.50  1.50  1.50  1.20  0.90  0.90  0.90  
10          1.50  1.50  1.50  1.20  0.90  0.90  0.90  
11          1.50  1.50  1.50  1.20  0.90  0.90  0.90  
12          1.50  1.50  1.50  1.20  0.90  0.90  0.90  
13          1.50  1.50  1.50  1.20  0.90  0.90  0.90  
14          1.50  1.50  1.50  1.20  0.90  0.90  0.90  
15          1.50  1.50  1.50  1.20  0.90  0.90  0.90  
16          1.50  1.50  1.50  1.20  0.90  0.90  0.90  
17          1.50  1.50  1.50  1.20  0.90  0.90  0.90  
18          1.50  1.50  1.50  1.20  0.90  0.90  0.90  
19          1.50  1.50  1.50  1.20  0.90  0.90  0.90  
20          1.50  1.50  1.50  1.20  0.90  0.90  0.90  
21          1.50  1.50  1.50  1.20  0.90  0.90  0.90  
22          1.50  1.50  1.50  1.20  0.90  0.90  0.90  
23          1.50  1.50  1.50  1.20  0.90  0.90  0.90  
24          1.50  1.50  1.50  1.20  0.90  0.90  0.90  
25          1.43  1.43  1.43  1.14  0.85  0.85  0.85  
26          1.43  1.43  1.43  1.14  0.85  0.85  0.85  
27          1.43  1.43  1.43  1.14  0.85  0.85  0.85  
28          1.43  1.43  1.43  1.14  0.85  0.85  0.85  
29          1.43  1.43  1.43  1.14  0.85  0.85  0.85  
30          1.43  1.43  1.43  1.14  0.85  0.85  0.85  
31          1.43  1.43  1.43  1.14  0.85  0.85  0.85  
32          1.43  1.43  1.43  1.14  0.85  0.85  0.85  
33          1.43  1.43  1.43  1.14  0.85  0.85  0.85  
34          1.50  1.50  1.50  1.20  0.90  0.90  0.90  
35          1.50  1.50  1.50  1.20  0.90  0.90  0.90  
36          1.50  1.50  1.50  1.20  0.90  0.90  0.90  
37          1.50  1.50  1.50  1.20  0.90  0.90  0.90  
38          1.50  1.50  1.50  1.20  0.90  0.90  0.90  
39          1.50  1.50  1.50  1.20  0.90  0.90  0.90  
40          1.50  1.50  1.50  1.20  0.90  0.90  0.90  
41          1.50  1.50  1.50  1.20  0.90  0.90  0.90  
42          1.50  1.50  1.50  1.20  0.90  0.90  0.90  
43          1.50  1.50  1.50  1.20  0.90  0.90  0.90  
44          1.50  1.50  1.50  1.20  0.90  0.90  0.90  
45          1.50  1.50  1.50  1.20  0.90  0.90  0.90  

[*,*,F2 ]:  K1    K2    K3    K4    K5    K6    K7    :=
1           1.70  1.70  1.70  1.36  1.02  1.02  1.02  
2           1.70  1.70  1.70  1.36  1.02  1.02  1.02  
3           1.70  1.70  1.70  1.36  1.02  1.02  1.02  
4           1.70  1.70  1.70  1.36  1.02  1.02  1.02  
5           1.70  1.70  1.70  1.36  1.02  1.02  1.02  
6           1.70  1.70  1.70  1.36  1.02  1.02  1.02  
7           1.70  1.70  1.70  1.36  1.02  1.02  1.02  
8           1.70  1.70  1.70  1.36  1.02  1.02  1.02  
9           1.70  1.70  1.70  1.36  1.02  1.02  1.02  
10          1.70  1.70  1.70  1.36  1.02  1.02  1.02  
11          1.70  1.70  1.70  1.36  1.02  1.02  1.02  
12          1.70  1.70  1.70  1.36  1.02  1.02  1.02  
13          1.70  1.70  1.70  1.36  1.02  1.02  1.02  
14          1.70  1.70  1.70  1.36  1.02  1.02  1.02  
15          1.70  1.70  1.70  1.36  1.02  1.02  1.02  
16          1.70  1.70  1.70  1.36  1.02  1.02  1.02  
17          1.70  1.70  1.70  1.36  1.02  1.02  1.02  
18          1.70  1.70  1.70  1.36  1.02  1.02  1.02  
19          1.70  1.70  1.70  1.36  1.02  1.02  1.02  
20          1.70  1.70  1.70  1.36  1.02  1.02  1.02  
21          1.70  1.70  1.70  1.36  1.02  1.02  1.02  
22          1.70  1.70  1.70  1.36  1.02  1.02  1.02  
23          1.70  1.70  1.70  1.36  1.02  1.02  1.02  
24          1.70  1.70  1.70  1.36  1.02  1.02  1.02  
25          1.62  1.62  1.62  1.29  0.97  0.97  0.97  
26          1.62  1.62  1.62  1.29  0.97  0.97  0.97  
27          1.62  1.62  1.62  1.29  0.97  0.97  0.97  
28          1.62  1.62  1.62  1.29  0.97  0.97  0.97  
29          1.62  1.62  1.62  1.29  0.97  0.97  0.97  
30          1.62  1.62  1.62  1.29  0.97  0.97  0.97  
31          1.62  1.62  1.62  1.29  0.97  0.97  0.97  
32          1.62  1.62  1.62  1.29  0.97  0.97  0.97  
33          1.62  1.62  1.62  1.29  0.97  0.97  0.97  
34          1.70  1.70  1.70  1.36  1.02  1.02  1.02  
35          1.70  1.70  1.70  1.36  1.02  1.02  1.02  
36          1.70  1.70  1.70  1.36  1.02  1.02  1.02  
37          1.70  1.70  1.70  1.36  1.02  1.02  1.02  
38          1.70  1.70  1.70  1.36  1.02  1.02  1.02  
39          1.70  1.70  1.70  1.36  1.02  1.02  1.02  
40          1.70  1.70  1.70  1.36  1.02  1.02  1.02  
41          1.70  1.70  1.70  1.36  1.02  1.02  1.02  
42          1.70  1.70  1.70  1.36  1.02  1.02  1.02  
43          1.70  1.70  1.70  1.36  1.02  1.02  1.02  
44          1.70  1.70  1.70  1.36  1.02  1.02  1.02  
45          1.70  1.70  1.70  1.36  1.02  1.02  1.02  
; # downloads resource k can do at front f in time t if intermediate time slot

param E:= 

[*,*,F1 ]:  K1    K2    K3    K4    K5    K6    K7    :=
1           0.18  0.63  0.51  0.48  0.40  0.27  0.09  
2           0.18  0.63  0.51  0.48  0.40  0.27  0.09  
3           0.18  0.63  0.51  0.48  0.40  0.27  0.09  
4           0.18  0.63  0.51  0.48  0.40  0.27  0.09  
5           0.18  0.63  0.51  0.48  0.40  0.27  0.09  
6           0.18  0.63  0.51  0.48  0.40  0.27  0.09  
7           0.18  0.63  0.51  0.48  0.40  0.27  0.09  
8           0.18  0.63  0.51  0.48  0.40  0.27  0.09  
9           0.18  0.63  0.51  0.48  0.40  0.27  0.09  
10          0.18  0.63  0.51  0.48  0.40  0.27  0.09  
11          0.18  0.63  0.51  0.48  0.40  0.27  0.09  
12          0.18  0.63  0.51  0.48  0.40  0.27  0.09  
13          0.18  0.63  0.51  0.48  0.40  0.27  0.09  
14          0.18  0.63  0.51  0.48  0.40  0.27  0.09  
15          0.18  0.63  0.51  0.48  0.40  0.27  0.09  
16          0.18  0.63  0.51  0.48  0.40  0.27  0.09  
17          0.18  0.63  0.51  0.48  0.40  0.27  0.09  
18          0.18  0.63  0.51  0.48  0.40  0.27  0.09  
19          0.18  0.63  0.51  0.48  0.40  0.27  0.09  
20          0.18  0.63  0.51  0.48  0.40  0.27  0.09  
21          0.18  0.63  0.51  0.48  0.40  0.27  0.09  
22          0.18  0.63  0.51  0.48  0.40  0.27  0.09  
23          0.18  0.63  0.51  0.48  0.40  0.27  0.09  
24          0.18  0.63  0.51  0.48  0.40  0.27  0.09  
25          0.17  0.60  0.49  0.45  0.38  0.26  0.09  
26          0.17  0.60  0.49  0.45  0.38  0.26  0.09  
27          0.17  0.60  0.49  0.45  0.38  0.26  0.09  
28          0.17  0.60  0.49  0.45  0.38  0.26  0.09  
29          0.17  0.60  0.49  0.45  0.38  0.26  0.09  
30          0.17  0.60  0.49  0.45  0.38  0.26  0.09  
31          0.17  0.60  0.49  0.45  0.38  0.26  0.09  
32          0.17  0.60  0.49  0.45  0.38  0.26  0.09  
33          0.17  0.60  0.49  0.45  0.38  0.26  0.09  
34          0.18  0.63  0.51  0.48  0.40  0.27  0.09  
35          0.18  0.63  0.51  0.48  0.40  0.27  0.09  
36          0.18  0.63  0.51  0.48  0.40  0.27  0.09  
37          0.18  0.63  0.51  0.48  0.40  0.27  0.09  
38          0.18  0.63  0.51  0.48  0.40  0.27  0.09  
39          0.18  0.63  0.51  0.48  0.40  0.27  0.09  
40          0.18  0.63  0.51  0.48  0.40  0.27  0.09  
41          0.18  0.63  0.51  0.48  0.40  0.27  0.09  
42          0.18  0.63  0.51  0.48  0.40  0.27  0.09  
43          0.18  0.63  0.51  0.48  0.40  0.27  0.09  
44          0.18  0.63  0.51  0.48  0.40  0.27  0.09  
45          0.18  0.63  0.51  0.48  0.40  0.27  0.09  

[*,*,F2 ]:  K1    K2    K3    K4    K5    K6    K7    :=
1           0.12  0.61  0.44  0.42  0.50  0.37  0.10  
2           0.12  0.61  0.44  0.42  0.50  0.37  0.10  
3           0.12  0.61  0.44  0.42  0.50  0.37  0.10  
4           0.12  0.61  0.44  0.42  0.50  0.37  0.10  
5           0.12  0.61  0.44  0.42  0.50  0.37  0.10  
6           0.12  0.61  0.44  0.42  0.50  0.37  0.10  
7           0.12  0.61  0.44  0.42  0.50  0.37  0.10  
8           0.12  0.61  0.44  0.42  0.50  0.37  0.10  
9           0.12  0.61  0.44  0.42  0.50  0.37  0.10  
10          0.12  0.61  0.44  0.42  0.50  0.37  0.10  
11          0.12  0.61  0.44  0.42  0.50  0.37  0.10  
12          0.12  0.61  0.44  0.42  0.50  0.37  0.10  
13          0.12  0.61  0.44  0.42  0.50  0.37  0.10  
14          0.12  0.61  0.44  0.42  0.50  0.37  0.10  
15          0.12  0.61  0.44  0.42  0.50  0.37  0.10  
16          0.12  0.61  0.44  0.42  0.50  0.37  0.10  
17          0.12  0.61  0.44  0.42  0.50  0.37  0.10  
18          0.12  0.61  0.44  0.42  0.50  0.37  0.10  
19          0.12  0.61  0.44  0.42  0.50  0.37  0.10  
20          0.12  0.61  0.44  0.42  0.50  0.37  0.10  
21          0.12  0.61  0.44  0.42  0.50  0.37  0.10  
22          0.12  0.61  0.44  0.42  0.50  0.37  0.10  
23          0.12  0.61  0.44  0.42  0.50  0.37  0.10  
24          0.12  0.61  0.44  0.42  0.50  0.37  0.10  
25          0.11  0.58  0.42  0.40  0.47  0.35  0.10  
26          0.11  0.58  0.42  0.40  0.47  0.35  0.10  
27          0.11  0.58  0.42  0.40  0.47  0.35  0.10  
28          0.11  0.58  0.42  0.40  0.47  0.35  0.10  
29          0.11  0.58  0.42  0.40  0.47  0.35  0.10  
30          0.11  0.58  0.42  0.40  0.47  0.35  0.10  
31          0.11  0.58  0.42  0.40  0.47  0.35  0.10  
32          0.11  0.58  0.42  0.40  0.47  0.35  0.10  
33          0.11  0.58  0.42  0.40  0.47  0.35  0.10  
34          0.12  0.61  0.44  0.42  0.50  0.37  0.10  
35          0.12  0.61  0.44  0.42  0.50  0.37  0.10  
36          0.12  0.61  0.44  0.42  0.50  0.37  0.10  
37          0.12  0.61  0.44  0.42  0.50  0.37  0.10  
38          0.12  0.61  0.44  0.42  0.50  0.37  0.10  
39          0.12  0.61  0.44  0.42  0.50  0.37  0.10  
40          0.12  0.61  0.44  0.42  0.50  0.37  0.10  
41          0.12  0.61  0.44  0.42  0.50  0.37  0.10  
42          0.12  0.61  0.44  0.42  0.50  0.37  0.10  
43          0.12  0.61  0.44  0.42  0.50  0.37  0.10  
44          0.12  0.61  0.44  0.42  0.50  0.37  0.10  
45          0.12  0.61  0.44  0.42  0.50  0.37  0.10  
; # downloads resource k can do at front f in time t if starting or ending flight

param W: 
	F1        F2        :=
1	173.03    173.03    
2	692.11    692.11    
3	692.11    692.11    
4	692.11    692.11    
5	692.11    692.11    
6	692.11    692.11    
7	692.11    692.11    
8	692.11    692.11    
9	692.11    692.11    
10	692.11    692.11    
11	692.11    692.11    
12	692.11    692.11    
13	692.11    692.11    
14	692.11    692.11    
15	692.11    692.11    
16	692.11    692.11    
17	692.11    692.11    
18	692.11    692.11    
19	692.11    692.11    
20	692.11    692.11    
21	692.11    692.11    
22	692.11    692.11    
23	692.11    692.11    
24	692.11    692.11    
25	692.11    692.11    
26	692.11    692.11    
27	692.11    692.11    
28	692.11    692.11    
29	692.11    692.11    
30	692.11    692.11    
31	692.11    692.11    
32	692.11    692.11    
33	692.11    692.11    
34	692.11    692.11    
35	692.11    692.11    
36	692.11    692.11    
37	692.11    692.11    
38	692.11    692.11    
39	692.11    692.11    
40	692.11    692.11    
41	692.11    692.11    
42	692.11    692.11    
43	692.11    692.11    
44	692.11    692.11    
45	173.03    173.03    
; # water needed at front f in time slot t

param M := 100000000; 

param a1:= 10000000;

param a2:= 100;

param a3:= 0.0001;
